instances/knapsack/knapsack_interdiction/knapsack_20_1_4.kp
42
20
1938

180 18.0 280 50.03
682 68.0 782 101.19
272 27.0 372 73.6
531 53.0 631 112.53
518 52.0 618 67.68
796 80.0 896 167.17
775 78.0 875 161.3
312 31.0 412 48.79
696 70.0 796 121.2
646 65.0 746 143.02
366 37.0 466 79.97
901 90.0 1001 171.62
65 6.0 165 28.51
782 78.0 882 124.13
232 23.0 332 56.6
592 59.0 692 113.4
169 17.0 269 27.73
499 50.0 599 66.63
542 54.0 642 88.86
135 14.0 235 26.69

42
[1794]

[[13, 11, 32, 60, 17, 22, 68, 50, 46, 41, 7, 74, 26, 2, 60, 81, 46, 48, 59, 56]]

[[87, 664, 912, 748, 690, 522, 263, 338, 116, 99, 997, 511, 213, 379, 983, 377, 37, 616, 126, 296]]
